64
10 10
8 0
7 6
2 8
4 2
7 2
8 7
8 1
8 5
6 2
9 8
7 8
6 8
4 0
7 4
9 0
6 0
3 7
5 1
0 7
0 4
1 0
9 2
7 1
2 1
9 3
2 0
3 2
1 2
9 6
4 5
5 6
6 4
0 3
2 4
2 6
1 8
5 7
1 6
1 4
5 4
1 9
9 7
5 2
9 5
3 0
6 5
6 3
7 7
9 9
4 9
7 9
8 3
4 1
3 8
8 6
2 5
6 1
5 8
2 9
1 3
2 3
4 7
8 9
1 5
